sing20191101.12
TTAA 51121 48698
99007 28850 22005 00081 28050 16007 92768 21407 22004
85501 18019 16005 70140 09041 27508 50586 05528 26008
40758 15325 08013 30969 29931 08027 25096 40144 04518
20244 53356 07542 15422 67762 07547 10658 80350 19517
88999
77999=
TTCC 51127 48698
70862 76362 32022
88933 81556 14510
77999=
TTDD 5112/ 48698
11933 81556 22839 80358 33771 73964 44591 78761
21212 11965 19014 22952 17510 33908 10507 44870 35510
55833 36010 66794 29510 77718 32022 88672 29031 99625
28538 11591 28532=
